NAME : block_12.562495.tour
COMMENT : Length = 562495
COMMENT : Found by LKH-3 [Keld Helsgaun] Mon Feb  2 23:11:38 2026
TYPE : TOUR
DIMENSION : 160
TOUR_SECTION
95
75
55
36
22
13
14
23
37
56
76
96
97
77
57
38
24
15
25
39
58
78
98
79
59
40
26
2
160
1
27
42
41
60
80
99
100
81
61
62
82
101
111
110
116
121
126
131
136
141
145
149
153
157
158
154
150
146
142
137
132
127
128
123
122
117
118
112
102
83
63
43
28
16
9
6
10
17
29
44
64
84
103
113
119
124
129
134
133
138
143
147
151
155
159
156
152
148
144
139
140
135
130
125
120
114
115
105
104
85
65
45
30
18
11
7
4
3
5
8
12
19
31
46
66
86
87
67
47
48
68
88
89
69
49
50
70
90
91
106
107
92
72
71
51
32
33
52
53
34
20
21
35
54
74
73
93
108
109
94
-1
EOF
